
Gurobi 10.0.0 (win64) logging started Fri Apr 28 15:19:56 2023

Set parameter LogFile to value "gurobi.log"
Gurobi Optimizer version 10.0.0 build v10.0.0rc2 (win64)

CPU model: Intel(R) Core(TM) i7-9750H CPU @ 2.60GHz, instruction set [SSE2|AVX|AVX2]
Thread count: 6 physical cores, 12 logical processors, using up to 12 threads

Optimize a model with 444 rows, 588 columns and 3300 nonzeros
Model fingerprint: 0xebc8d70f
Variable types: 2 continuous, 586 integer (586 binary)
Coefficient statistics:
  Matrix range     [1e+00, 6e+01]
  Objective range  [1e+00, 1e+00]
  Bounds range     [1e+00, 1e+00]
  RHS range        [1e+00, 1e+00]
Presolve removed 163 rows and 55 columns
Presolve time: 0.03s
Presolved: 281 rows, 533 columns, 2831 nonzeros
Variable types: 0 continuous, 533 integer (531 binary)
Found heuristic solution: objective 310.0000000
Found heuristic solution: objective 260.0000000

Root relaxation: objective 0.000000e+00, 314 iterations, 0.01 seconds (0.00 work units)

    Nodes    |    Current Node    |     Objective Bounds      |     Work
 Expl Unexpl |  Obj  Depth IntInf | Incumbent    BestBd   Gap | It/Node Time

     0     0    0.00000    0   25  260.00000    0.00000   100%     -    0s
H    0     0                     100.0000000    0.00000   100%     -    0s
H    0     0                      50.0000000    0.00000   100%     -    0s
     0     0    0.00000    0   83   50.00000    0.00000   100%     -    0s
H    0     0                      30.0000000    0.00000   100%     -    0s
H    0     0                      20.0000000    0.00000   100%     -    0s
     0     0    0.00000    0   27   20.00000    0.00000   100%     -    0s
     0     0    0.00000    0   21   20.00000    0.00000   100%     -    0s
     0     0    0.00000    0   33   20.00000    0.00000   100%     -    0s
     0     0    0.00000    0   25   20.00000    0.00000   100%     -    0s
     0     2    0.00000    0   17   20.00000    0.00000   100%     -    0s
H 4430   360                       0.0000000    0.00000  0.00%  23.5    1s

Cutting planes:
  Gomory: 5
  Cover: 77
  Clique: 12
  MIR: 14
  StrongCG: 5
  GUB cover: 16
  Inf proof: 1
  Zero half: 5
  RLT: 10

Explored 4431 nodes (108330 simplex iterations) in 1.45 seconds (1.04 work units)
Thread count was 12 (of 12 available processors)

Solution count 7: 0 20 30 ... 310

Optimal solution found (tolerance 1.00e-04)
Best objective 0.000000000000e+00, best bound 0.000000000000e+00, gap 0.0000%

User-callback calls 9558, time in user-callback 0.01 sec
